
%FILE DATA:	Soccer Computational Problem for MiniZinc Models	%
%AUTHOR:	Jack Wall	%
%CONTACT:  	116397063@umail.ucc.ie			%
%LAST UPDATE:	01/29/2020, 10:18:06						%
%DESCRIPTION: 	-8 games played with 56 games left				%

n=8; %number of teams

%Games to play
games=[|6,7|8,3|8,6|8,7|5,6|5,7|2,4|7,1|4,8|3,2|2,3|6,1|2,1|7,2|8,1|5,3|5,4|3,6|6,5|7,3|1,5|6,8|5,2|3,8|3,7|7,6|1,7|4,2|1,4|1,8|8,2|4,1|2,6|4,7|7,4|4,3|1,2|3,1|2,7|7,5|5,1|4,5|5,8|2,8|4,6|2,5|1,6|6,4|1,3|7,8|8,5|6,3|6,2|8,4|3,4|3,5|];

%Initial points
iPoints=];

%POSITION CONSTRAINTS
% [|teamID, operator, position|...]
% operators index:
%  1 for =  operator
%  2 for >  operator
%  3 for >= operator
%  4 for <  operator
%  5 for <= operator
positionConstraints=[|6,4,2|8,4,3|2,4,4|];